NAME: map3_180
TYPE: TSP
COMMENT: autogenerated using a wonderful map creator
DIMENSION: 210
EDGE_WEIGHT_TYPE: EUC_2D
NODE_COORD_SECTION
1 1.0 11.0
2 1.0 12.0
3 1.0 13.0
4 1.0 14.0
5 1.0 15.0
6 36.0 62.0
7 37.0 62.0
8 38.0 62.0
9 40.0 62.0
10 41.0 62.0
11 62.0 22.0
12 62.0 21.0
13 62.0 20.0
14 40.0 1.0
15 39.0 1.0
16 1.0 16.0
17 1.0 17.0
18 1.0 18.0
19 1.0 19.0
20 1.0 20.0
21 43.0 62.0
22 44.0 62.0
23 45.0 62.0
24 46.0 62.0
25 47.0 62.0
26 62.0 19.0
27 62.0 18.0
28 38.0 1.0
29 37.0 1.0
30 36.0 1.0
31 0.0 11.0
32 0.0 12.0
33 0.0 13.0
34 0.0 14.0
35 0.0 15.0
36 36.0 63.0
37 37.0 63.0
38 38.0 63.0
39 40.0 63.0
40 41.0 63.0
41 63.0 22.0
42 63.0 21.0
43 63.0 20.0
44 40.0 0.0
45 39.0 0.0
46 0.0 16.0
47 0.0 17.0
48 0.0 18.0
49 0.0 19.0
50 0.0 20.0
51 43.0 63.0
52 44.0 63.0
53 45.0 63.0
54 46.0 63.0
55 47.0 63.0
56 63.0 19.0
57 63.0 18.0
58 38.0 0.0
59 37.0 0.0
60 36.0 0.0
61 53.0 5.0
62 4.0 55.0
63 25.0 32.0
64 27.0 4.0
65 37.0 6.0
66 2.0 39.0
67 33.0 54.0
68 37.0 15.0
69 34.0 28.0
70 60.0 10.0
71 57.0 57.0
72 30.0 18.0
73 11.0 14.0
74 63.0 52.0
75 32.0 12.0
76 9.0 26.0
77 52.0 24.0
78 22.0 53.0
79 57.0 20.0
80 49.0 25.0
81 6.0 20.0
82 61.0 54.0
83 10.0 45.0
84 17.0 60.0
85 31.0 22.0
86 1.0 51.0
87 25.0 52.0
88 56.0 30.0
89 15.0 53.0
90 44.0 31.0
91 61.0 47.0
92 15.0 25.0
93 18.0 30.0
94 53.0 27.0
95 45.0 23.0
96 15.0 46.0
97 40.0 45.0
98 24.0 58.0
99 29.0 54.0
100 31.0 51.0
101 35.0 12.0
102 58.0 44.0
103 60.0 41.0
104 18.0 5.0
105 18.0 60.0
106 52.0 37.0
107 33.0 33.0
108 50.0 49.0
109 16.0 26.0
110 19.0 52.0
111 34.0 16.0
112 11.0 48.0
113 54.0 28.0
114 22.0 23.0
115 51.0 4.0
116 54.0 37.0
117 22.0 32.0
118 7.0 62.0
119 25.0 22.0
120 39.0 14.0
121 2.0 29.0
122 17.0 48.0
123 53.0 13.0
124 33.0 44.0
125 29.0 13.0
126 2.0 38.0
127 42.0 56.0
128 58.0 12.0
129 2.0 56.0
130 9.0 16.0
131 51.0 15.0
132 41.0 23.0
133 18.0 55.0
134 45.0 39.0
135 62.0 55.0
136 25.0 15.0
137 36.0 45.0
138 34.0 57.0
139 30.0 47.0
140 22.0 9.0
141 56.0 11.0
142 58.0 60.0
143 20.0 21.0
144 14.0 5.0
145 30.0 56.0
146 32.0 50.0
147 37.0 16.0
148 57.0 49.0
149 49.0 45.0
150 15.0 12.0
151 21.0 47.0
152 33.0 12.0
153 41.0 25.0
154 25.0 8.0
155 17.0 34.0
156 59.0 49.0
157 48.0 12.0
158 31.0 14.0
159 45.0 13.0
160 57.0 42.0
161 48.0 39.0
162 60.0 4.0
163 51.0 1.0
164 27.0 10.0
165 14.0 25.0
166 44.0 14.0
167 11.0 11.0
168 46.0 8.0
169 48.0 5.0
170 11.0 20.0
171 33.0 23.0
172 38.0 13.0
173 19.0 42.0
174 45.0 6.0
175 12.0 3.0
176 58.0 55.0
177 48.0 32.0
178 32.0 45.0
179 5.0 6.0
180 15.0 38.0
181 29.0 37.0
182 44.0 53.0
183 26.0 47.0
184 13.0 59.0
185 2.0 1.0
186 30.0 17.0
187 39.0 50.0
188 56.0 45.0
189 11.0 22.0
190 37.0 41.0
191 22.0 52.0
192 30.0 44.0
193 11.0 40.0
194 17.0 56.0
195 2.0 37.0
196 60.0 54.0
197 35.0 34.0
198 56.0 38.0
199 33.0 18.0
200 63.0 53.0
201 5.0 29.0
202 48.0 9.0
203 40.0 14.0
204 29.0 23.0
205 55.0 5.0
206 60.0 1.0
207 55.0 14.0
208 18.0 29.0
209 25.0 44.0
210 19.0 3.0
211 37.0 18.0
212 11.0 63.0
213 25.0 62.0
214 10.0 9.0
215 54.0 52.0
216 9.0 29.0
217 22.0 1.0
218 13.0 29.0
219 44.0 41.0
220 21.0 21.0
221 16.0 43.0
222 59.0 23.0
223 28.0 44.0
224 33.0 25.0
225 14.0 54.0
226 61.0 41.0
227 49.0 30.0
228 35.0 40.0
229 59.0 7.0
230 45.0 17.0
231 35.0 49.0
232 19.0 62.0
233 31.0 36.0
234 62.0 51.0
235 12.0 32.0
236 54.0 47.0
237 51.0 23.0
238 13.0 6.0
239 12.0 50.0
240 52.0 31.0
START_DEPOT_SECTION
1
2
3
4
5
6
7
8
9
10
11
12
13
14
15
16
17
18
19
20
21
22
23
24
25
26
27
28
29
30
-1
END_DEPOT_SECTION
31
32
33
34
35
36
37
38
39
40
41
42
43
44
45
46
47
48
49
50
51
52
53
54
55
56
57
58
59
60
-1
EOF
